38 2000
10 132
10 117
10 132
6 178
9 145
2 119
9 150
5 149
3 151
6 149
10 117
11 153
5 197
10 144
10 144
6 186
5 186
6 183
5 116
3 151
5 119
6 200
5 178
5 124
2 200
11 149
9 166
3 197
2 111
2 166
9 111
4 145
4 149
7 124
4 116
7 150
9 153
5 183
